50
2 1 870
3 1 829
3 2 921
4 1 271
4 2 241
4 3 203
5 1 89
5 2 779
5 3 1
5 4 571
6 1 145
6 2 43
6 3 424
6 4 939
6 5 843
7 1 260
7 2 163
7 3 640
7 4 6
7 5 203
7 6 146
8 1 230
8 2 900
8 3 243
8 4 199
8 5 441
8 6 141
8 7 790
9 1 564
9 2 432
9 3 450
9 4 497
9 5 784
9 6 866
9 7 825
9 8 880
10 1 614
10 2 539
10 3 941
10 4 224
10 5 928
10 6 595
10 7 848
10 8 900
10 9 788
11 1 545
11 2 285
11 3 484
11 4 140
11 5 633
11 6 171
11 7 293
11 8 810
11 9 272
11 10 94
12 1 228
12 2 752
12 3 564
12 4 865
12 5 39
12 6 734
12 7 173
12 8 450
12 9 417
12 10 904
12 11 24
13 1 845
13 2 506
13 3 939
13 4 611
13 5 717
13 6 748
13 7 688
13 8 904
13 9 876
13 10 165
13 11 547
13 12 106
14 1 883
14 2 472
14 3 953
14 4 774
14 5 378
14 6 643
14 7 743
14 8 53
14 9 934
14 10 810
14 11 270
14 12 23
14 13 501
15 1 628
15 2 507
15 3 421
15 4 770
15 5 473
15 6 555
15 7 233
15 8 1
15 9 122
15 10 257
15 11 918
15 12 156
15 13 770
15 14 859
16 1 263
16 2 386
16 3 537
16 4 904
16 5 126
16 6 199
16 7 820
16 8 809
16 9 566
16 10 862
16 11 143
16 12 810
16 13 120
16 14 873
16 15 362
17 1 214
17 2 224
17 3 550
17 4 366
17 5 164
17 6 46
17 7 68
17 8 657
17 9 334
17 10 207
17 11 499
17 12 423
17 13 269
17 14 183
17 15 681
17 16 996
18 1 300
18 2 351
18 3 978
18 4 819
18 5 226
18 6 969
18 7 241
18 8 298
18 9 205
18 10 565
18 11 556
18 12 178
18 13 548
18 14 507
18 15 567
18 16 308
18 17 350
19 1 755
19 2 467
19 3 935
19 4 165
19 5 38
19 6 959
19 7 898
19 8 146
19 9 975
19 10 757
19 11 361
19 12 355
19 13 887
19 14 437
19 15 955
19 16 184
19 17 297
19 18 721
20 1 452
20 2 71
20 3 388
20 4 494
20 5 377
20 6 961
20 7 906
20 8 122
20 9 149
20 10 193
20 11 274
20 12 904
20 13 662
20 14 768
20 15 916
20 16 696
20 17 418
20 18 176
20 19 44
21 1 54
21 2 593
21 3 232
21 4 412
21 5 440
21 6 673
21 7 614
21 8 798
21 9 315
21 10 525
21 11 30
21 12 208
21 13 191
21 14 47
21 15 223
21 16 56
21 17 947
21 18 765
21 19 250
21 20 837
22 1 985
22 2 9
22 3 716
22 4 31
22 5 39
22 6 553
22 7 922
22 8 254
22 9 700
22 10 834
22 11 103
22 12 896
22 13 983
22 14 143
22 15 205
22 16 769
22 17 490
22 18 411
22 19 895
22 20 504
22 21 991
23 1 470
23 2 734
23 3 701
23 4 498
23 5 912
23 6 720
23 7 97
23 8 133
23 9 934
23 10 628
23 11 247
23 12 362
23 13 796
23 14 847
23 15 474
23 16 422
23 17 761
23 18 657
23 19 89
23 20 993
23 21 666
23 22 124
24 1 144
24 2 433
24 3 476
24 4 74
24 5 210
24 6 156
24 7 478
24 8 821
24 9 941
24 10 949
24 11 969
24 12 599
24 13 434
24 14 317
24 15 589
24 16 886
24 17 619
24 18 149
24 19 657
24 20 67
24 21 203
24 22 292
24 23 158
25 1 114
25 2 914
25 3 833
25 4 245
25 5 243
25 6 52
25 7 170
25 8 395
25 9 721
25 10 587
25 11 176
25 12 588
25 13 282
25 14 333
25 15 27
25 16 154
25 17 829
25 18 929
25 19 518
25 20 145
25 21 366
25 22 641
25 23 920
25 24 379
26 1 366
26 2 244
26 3 698
26 4 531
26 5 988
26 6 473
26 7 672
26 8 891
26 9 869
26 10 811
26 11 409
26 12 676
26 13 402
26 14 609
26 15 939
26 16 28
26 17 706
26 18 803
26 19 98
26 20 66
26 21 733
26 22 713
26 23 63
26 24 632
26 25 195
27 1 697
27 2 903
27 3 598
27 4 250
27 5 656
27 6 208
27 7 880
27 8 150
27 9 640
27 10 113
27 11 518
27 12 287
27 13 66
27 14 283
27 15 466
27 16 321
27 17 299
27 18 676
27 19 967
27 20 343
27 21 598
27 22 152
27 23 633
27 24 257
27 25 682
27 26 238
28 1 624
28 2 826
28 3 424
28 4 626
28 5 545
28 6 70
28 7 422
28 8 212
28 9 938
28 10 962
28 11 451
28 12 742
28 13 511
28 14 612
28 15 50
28 16 390
28 17 466
28 18 372
28 19 757
28 20 825
28 21 563
28 22 568
28 23 727
28 24 585
28 25 807
28 26 794
28 27 756
29 1 836
29 2 868
29 3 950
29 4 954
29 5 810
29 6 633
29 7 482
29 8 574
29 9 511
29 10 500
29 11 505
29 12 754
29 13 493
29 14 314
29 15 751
29 16 163
29 17 775
29 18 51
29 19 536
29 20 828
29 21 222
29 22 649
29 23 189
29 24 621
29 25 945
29 26 599
29 27 627
29 28 181
30 1 537
30 2 188
30 3 29
30 4 254
30 5 226
30 6 512
30 7 787
30 8 725
30 9 241
30 10 649
30 11 183
30 12 839
30 13 977
30 14 609
30 15 491
30 16 349
30 17 759
30 18 945
30 19 427
30 20 627
30 21 279
30 22 164
30 23 149
30 24 963
30 25 28
30 26 295
30 27 258
30 28 564
30 29 273
31 1 262
31 2 466
31 3 20
31 4 418
31 5 939
31 6 903
31 7 225
31 8 792
31 9 997
31 10 226
31 11 7
31 12 198
31 13 952
31 14 994
31 15 986
31 16 779
31 17 18
31 18 982
31 19 402
31 20 26
31 21 654
31 22 395
31 23 910
31 24 983
31 25 932
31 26 153
31 27 618
31 28 981
31 29 113
31 30 700
32 1 852
32 2 447
32 3 42
32 4 34
32 5 407
32 6 629
32 7 257
32 8 881
32 9 298
32 10 277
32 11 939
32 12 220
32 13 243
32 14 623
32 15 70
32 16 601
32 17 415
32 18 199
32 19 443
32 20 931
32 21 176
32 22 339
32 23 395
32 24 690
32 25 834
32 26 399
32 27 389
32 28 754
32 29 657
32 30 47
32 31 833
33 1 274
33 2 646
33 3 150
33 4 760
33 5 295
33 6 839
33 7 116
33 8 239
33 9 70
33 10 126
33 11 721
33 12 670
33 13 239
33 14 850
33 15 759
33 16 312
33 17 340
33 18 681
33 19 77
33 20 695
33 21 318
33 22 535
33 23 804
33 24 788
33 25 1000
33 26 518
33 27 855
33 28 47
33 29 696
33 30 175
33 31 8
33 32 729
34 1 400
34 2 531
34 3 137
34 4 101
34 5 257
34 6 678
34 7 406
34 8 411
34 9 252
34 10 922
34 11 498
34 12 769
34 13 307
34 14 737
34 15 189
34 16 301
34 17 226
34 18 31
34 19 842
34 20 216
34 21 187
34 22 473
34 23 623
34 24 649
34 25 706
34 26 899
34 27 527
34 28 432
34 29 291
34 30 34
34 31 502
34 32 156
34 33 198
35 1 48
35 2 270
35 3 147
35 4 2
35 5 684
35 6 632
35 7 260
35 8 912
35 9 985
35 10 343
35 11 591
35 12 31
35 13 849
35 14 859
35 15 506
35 16 991
35 17 932
35 18 544
35 19 608
35 20 668
35 21 648
35 22 121
35 23 520
35 24 906
35 25 272
35 26 467
35 27 615
35 28 449
35 29 390
35 30 44
35 31 76
35 32 515
35 33 223
35 34 545
36 1 905
36 2 721
36 3 545
36 4 569
36 5 767
36 6 272
36 7 235
36 8 385
36 9 803
36 10 632
36 11 687
36 12 115
36 13 769
36 14 105
36 15 604
36 16 886
36 17 167
36 18 19
36 19 912
36 20 779
36 21 203
36 22 453
36 23 814
36 24 641
36 25 739
36 26 710
36 27 226
36 28 66
36 29 595
36 30 958
36 31 103
36 32 128
36 33 839
36 34 743
36 35 409
37 1 662
37 2 937
37 3 320
37 4 742
37 5 181
37 6 909
37 7 980
37 8 847
37 9 732
37 10 840
37 11 818
37 12 550
37 13 253
37 14 409
37 15 648
37 16 840
37 17 265
37 18 288
37 19 980
37 20 122
37 21 952
37 22 555
37 23 279
37 24 883
37 25 945
37 26 491
37 27 922
37 28 281
37 29 381
37 30 402
37 31 565
37 32 415
37 33 59
37 34 330
37 35 844
37 36 259
38 1 742
38 2 788
38 3 618
38 4 549
38 5 944
38 6 907
38 7 183
38 8 91
38 9 743
38 10 608
38 11 150
38 12 267
38 13 465
38 14 688
38 15 935
38 16 738
38 17 278
38 18 949
38 19 51
38 20 590
38 21 31
38 22 744
38 23 628
38 24 435
38 25 899
38 26 569
38 27 886
38 28 222
38 29 643
38 30 591
38 31 459
38 32 752
38 33 568
38 34 219
38 35 802
38 36 166
38 37 479
39 1 126
39 2 92
39 3 889
39 4 204
39 5 319
39 6 336
39 7 812
39 8 516
39 9 165
39 10 612
39 11 684
39 12 499
39 13 478
39 14 644
39 15 998
39 16 685
39 17 70
39 18 148
39 19 850
39 20 535
39 21 364
39 22 638
39 23 544
39 24 61
39 25 984
39 26 645
39 27 933
39 28 678
39 29 418
39 30 524
39 31 758
39 32 586
39 33 156
39 34 304
39 35 489
39 36 256
39 37 919
39 38 264
40 1 415
40 2 834
40 3 866
40 4 180
40 5 993
40 6 529
40 7 899
40 8 436
40 9 710
40 10 306
40 11 451
40 12 437
40 13 958
40 14 438
40 15 395
40 16 14
40 17 680
40 18 757
40 19 923
40 20 770
40 21 787
40 22 640
40 23 563
40 24 550
40 25 603
40 26 70
40 27 685
40 28 481
40 29 842
40 30 330
40 31 131
40 32 272
40 33 867
40 34 148
40 35 854
40 36 716
40 37 239
40 38 351
40 39 696
41 1 587
41 2 811
41 3 360
41 4 668
41 5 367
41 6 863
41 7 79
41 8 382
41 9 503
41 10 44
41 11 4
41 12 500
41 13 128
41 14 109
41 15 605
41 16 333
41 17 446
41 18 726
41 19 320
41 20 967
41 21 213
41 22 838
41 23 697
41 24 556
41 25 7
41 26 337
41 27 531
41 28 636
41 29 238
41 30 68
41 31 42
41 32 620
41 33 78
41 34 400
41 35 417
41 36 828
41 37 758
41 38 877
41 39 284
41 40 693
42 1 918
42 2 696
42 3 930
42 4 21
42 5 966
42 6 31
42 7 338
42 8 430
42 9 614
42 10 434
42 11 343
42 12 348
42 13 55
42 14 840
42 15 495
42 16 208
42 17 458
42 18 910
42 19 428
42 20 696
42 21 732
42 22 731
42 23 808
42 24 213
42 25 738
42 26 123
42 27 178
42 28 900
42 29 406
42 30 45
42 31 265
42 32 870
42 33 433
42 34 876
42 35 558
42 36 533
42 37 519
42 38 555
42 39 246
42 40 118
42 41 318
43 1 844
43 2 794
43 3 801
43 4 553
43 5 214
43 6 769
43 7 42
43 8 987
43 9 114
43 10 694
43 11 28
43 12 187
43 13 615
43 14 17
43 15 343
43 16 276
43 17 700
43 18 510
43 19 242
43 20 116
43 21 684
43 22 652
43 23 163
43 24 605
43 25 533
43 26 830
43 27 356
43 28 37
43 29 85
43 30 411
43 31 752
43 32 720
43 33 414
43 34 5
43 35 454
43 36 281
43 37 857
43 38 493
43 39 486
43 40 359
43 41 451
43 42 617
44 1 664
44 2 623
44 3 772
44 4 226
44 5 733
44 6 314
44 7 463
44 8 472
44 9 137
44 10 737
44 11 908
44 12 525
44 13 62
44 14 414
44 15 856
44 16 640
44 17 619
44 18 819
44 19 955
44 20 624
44 21 307
44 22 909
44 23 477
44 24 23
44 25 126
44 26 868
44 27 735
44 28 607
44 29 974
44 30 774
44 31 930
44 32 955
44 33 208
44 34 127
44 35 453
44 36 215
44 37 493
44 38 415
44 39 878
44 40 350
44 41 320
44 42 186
44 43 164
45 1 442
45 2 825
45 3 289
45 4 808
45 5 868
45 6 783
45 7 244
45 8 964
45 9 411
45 10 911
45 11 932
45 12 772
45 13 631
45 14 851
45 15 28
45 16 406
45 17 47
45 18 472
45 19 900
45 20 599
45 21 967
45 22 364
45 23 878
45 24 637
45 25 16
45 26 652
45 27 119
45 28 87
45 29 687
45 30 511
45 31 486
45 32 758
45 33 473
45 34 13
45 35 143
45 36 653
45 37 407
45 38 181
45 39 803
45 40 906
45 41 71
45 42 378
45 43 826
45 44 971
46 1 390
46 2 418
46 3 599
46 4 559
46 5 775
46 6 18
46 7 900
46 8 74
46 9 440
46 10 473
46 11 183
46 12 565
46 13 948
46 14 690
46 15 968
46 16 429
46 17 317
46 18 947
46 19 792
46 20 391
46 21 231
46 22 20
46 23 400
46 24 490
46 25 198
46 26 541
46 27 127
46 28 99
46 29 699
46 30 735
46 31 650
46 32 217
46 33 662
46 34 896
46 35 563
46 36 539
46 37 812
46 38 244
46 39 469
46 40 70
46 41 724
46 42 38
46 43 508
46 44 267
46 45 645
47 1 66
47 2 543
47 3 980
47 4 391
47 5 912
47 6 425
47 7 688
47 8 903
47 9 601
47 10 30
47 11 786
47 12 259
47 13 523
47 14 22
47 15 921
47 16 224
47 17 756
47 18 513
47 19 648
47 20 647
47 21 166
47 22 89
47 23 883
47 24 269
47 25 914
47 26 859
47 27 934
47 28 765
47 29 257
47 30 505
47 31 98
47 32 87
47 33 753
47 34 493
47 35 76
47 36 412
47 37 269
47 38 905
47 39 729
47 40 279
47 41 410
47 42 579
47 43 901
47 44 717
47 45 250
47 46 497
48 1 337
48 2 438
48 3 495
48 4 611
48 5 935
48 6 410
48 7 454
48 8 553
48 9 849
48 10 375
48 11 451
48 12 916
48 13 178
48 14 130
48 15 559
48 16 50
48 17 266
48 18 634
48 19 766
48 20 565
48 21 853
48 22 267
48 23 990
48 24 977
48 25 583
48 26 789
48 27 524
48 28 198
48 29 628
48 30 841
48 31 836
48 32 798
48 33 430
48 34 26
48 35 812
48 36 251
48 37 808
48 38 915
48 39 862
48 40 578
48 41 946
48 42 515
48 43 472
48 44 106
48 45 4
48 46 43
48 47 126
49 1 267
49 2 366
49 3 56
49 4 696
49 5 637
49 6 770
49 7 254
49 8 689
49 9 648
49 10 833
49 11 527
49 12 980
49 13 677
49 14 715
49 15 68
49 16 918
49 17 439
49 18 936
49 19 600
49 20 911
49 21 889
49 22 590
49 23 54
49 24 899
49 25 62
49 26 469
49 27 252
49 28 314
49 29 552
49 30 842
49 31 416
49 32 435
49 33 566
49 34 907
49 35 563
49 36 240
49 37 749
49 38 146
49 39 117
49 40 151
49 41 214
49 42 115
49 43 287
49 44 302
49 45 478
49 46 405
49 47 40
49 48 191
